c A SAT instance generated from a 3-CNF formula that had 12 clauses and 4 variables
p cnf 4 12
-3 2 1 0
4 -2 1 0
-1 4 2 0
2 -3 -1 0
3 -2 -4 0
-3 4 2 0
2 4 1 0
-4 2 1 0
1 3 -2 0
3 1 4 0
3 -4 1 0
-4 2 -1 0
